data;


param FN:= 0;
param D:= 100;
param U_Original:=
         1         1       -5.992558e-01
         2         1       -4.517096e-02
         3         1        5.910566e-02
         4         1       -6.319669e-01
         5         1       -8.220920e-01
         6         1        1.660732e+00
         7         1       -3.687485e-01
         8         1        5.159186e-01
         9         1       -7.204394e-01
        10         1       -1.092617e+00
        11         1       -5.354132e-01
        12         1       -1.559323e-01
        13         1       -1.071383e+00
        14         1        1.495492e-01
        15         1       -1.555124e-01
        16         1        4.387916e-01
        17         1        5.114286e-01
        18         1       -4.861657e-01
        19         1        3.775648e-02
        20         1       -6.996783e-01
        21         1       -8.814696e-02
        22         1       -1.099865e+00
        23         1       -8.511047e-01
        24         1        3.918819e-01
        25         1       -3.314817e-01
        26         1       -5.993323e-01
        27         1        7.257106e-01
        28         1       -3.009026e+00
        29         1       -1.623553e-01
        30         1       -2.769887e+00
        31         1       -5.694919e-02
        32         1       -6.494955e-01
        33         1        1.392704e+00
        34         1       -5.537077e-01
        35         1        8.137243e-01
        36         1       -5.213495e-01
        37         1        1.576065e+00
        38         1       -9.922698e-01
        39         1       -5.017752e-01
        40         1       -8.499013e-01
        41         1       -6.339137e-01
        42         1        4.750581e-01
        43         1       -1.806347e+00
        44         1       -2.959437e-01
        45         1       -8.475959e-01
        46         1       -4.327943e-01
        47         1       -8.909185e-01
        48         1       -1.080075e+00
        49         1       -4.705351e-01
        50         1        8.814757e-01
        51         1       -1.113816e+00
        52         1       -4.867458e-01
        53         1        2.342800e+00
        54         1        1.258262e-01
        55         1       -3.687485e-02
        56         1        1.319019e-01
        57         1        8.809222e-01
        58         1        7.926076e-01
        59         1       -3.854303e-01
        60         1       -1.989264e-01
        61         1       -7.608079e-01
        62         1       -1.051691e+00
        63         1       -1.197719e+00
        64         1       -1.935395e-01
        65         1        1.417998e+00
        66         1        7.697662e-01
        67         1       -2.995483e+00
        68         1       -3.139945e-02
        69         1        1.031535e+00
        70         1        4.931231e-02
        71         1       -3.013035e-01
        72         1        1.704480e+00
        73         1        1.137363e+00
        74         1       -4.869409e-01
        75         1        1.640328e+00
        76         1        2.469568e-01
        77         1        1.841247e+00
        78         1       -1.545719e+00
        79         1       -1.638905e-01
        80         1        4.058247e-01
        81         1        8.329191e-01
        82         1       -1.018696e+00
        83         1       -1.171079e+00
        84         1       -7.058580e-01
        85         1        1.483788e+00
        86         1        3.997422e-01
        87         1        8.630000e-01
        88         1        6.232913e-02
        89         1        8.391113e-01
        90         1        2.343219e-01
        91         1        9.358119e-01
        92         1        3.902849e-02
        93         1        3.282928e-01
        94         1        2.780050e-01
        95         1        2.586500e-02
        96         1        1.583820e+00
        97         1       -1.531010e+00
        98         1        1.434510e-01
        99         1        3.670396e+00
       100         1       -1.746702e+00
         1         2        4.839537e-01
         2         2       -1.774645e+00
         3         2       -7.456128e-02
         4         2        2.371332e+00
         5         2       -1.036207e+00
         6         2       -1.526008e-03
         7         2       -6.578246e-01
         8         2       -7.660615e-01
         9         2       -1.148080e-01
        10         2       -6.596035e-01
        11         2       -6.893125e-01
        12         2       -7.729421e-01
        13         2        1.155919e+00
        14         2        1.928176e-01
        15         2       -4.482399e-01
        16         2       -1.112074e+00
        17         2       -2.101203e-01
        18         2       -5.259641e-01
        19         2       -6.627618e-01
        20         2       -1.599833e-01
        21         2        4.102039e-04
        22         2        9.131955e-01
        23         2        1.317532e+00
        24         2        9.264495e-01
        25         2        7.649136e-01
        26         2       -7.128664e-01
        27         2       -1.804561e-01
        28         2        5.555518e-01
        29         2        6.247627e-01
        30         2        1.334667e+00
        31         2       -4.267080e-02
        32         2        6.324265e-01
        33         2        1.394736e+00
        34         2        6.560845e-01
        35         2       -7.860101e-01
        36         2        1.307689e+00
        37         2        1.288764e+00
        38         2       -7.191369e-02
        39         2       -1.851860e+00
        40         2        2.250843e-01
        41         2       -2.092807e-01
        42         2        1.854768e+00
        43         2       -2.010391e+00
        44         2        1.499691e+00
        45         2        2.351293e-01
        46         2        1.706752e+00
        47         2        2.572771e-02
        48         2       -2.883186e-01
        49         2       -9.327830e-01
        50         2       -4.783717e-01
        51         2        9.097964e-01
        52         2       -2.774177e-01
        53         2        9.304651e-01
        54         2       -7.428432e-01
        55         2        1.286956e+00
        56         2       -2.577739e-01
        57         2        1.225616e+00
        58         2       -2.123476e+00
        59         2        1.415240e+00
        60         2       -1.444020e+00
        61         2       -1.523095e-01
        62         2        9.141493e-01
        63         2       -3.529196e-01
        64         2       -3.936624e-01
        65         2       -7.495687e-01
        66         2       -5.847620e-01
        67         2       -4.852549e-01
        68         2       -9.472568e-01
        69         2       -6.291522e-01
        70         2        5.193864e-01
        71         2       -9.457912e-01
        72         2       -8.056775e-01
        73         2        1.450485e-01
        74         2       -1.874598e-01
        75         2       -4.411028e-01
        76         2        1.553349e+00
        77         2       -1.632166e-01
        78         2        1.442556e-01
        79         2       -9.440822e-01
        80         2        4.836172e-02
        81         2       -1.100131e-01
        82         2        2.234652e-01
        83         2        4.677469e-01
        84         2       -3.380027e-01
        85         2        1.126296e+00
        86         2        6.268896e-01
        87         2       -2.180958e+00
        88         2       -1.301787e-01
        89         2       -9.662092e-01
        90         2       -1.569257e+00
        91         2        5.447383e-01
        92         2       -8.406635e-01
        93         2       -1.674010e+00
        94         2       -6.698776e-01
        95         2       -1.578774e-01
        96         2        3.030097e-01
        97         2        1.151653e+00
        98         2        1.589609e-01
        99         2       -1.278704e+00
       100         2       -1.436958e+00
         1         3       -2.419920e-01
         2         3       -9.868377e-01
         3         3       -9.928154e-01
         4         3        1.016212e+00
         5         3       -6.690535e-01
         6         3       -5.580966e-01
         7         3        6.819395e-01
         8         3       -7.634138e-01
         9         3       -1.134624e+00
        10         3        4.254524e-01
        11         3       -3.156223e-01
        12         3        1.050564e-01
        13         3        1.189697e+00
        14         3        8.551052e-01
        15         3       -6.442985e-01
        16         3        3.166841e-01
        17         3        4.034463e-01
        18         3       -4.952017e-01
        19         3        1.233094e+00
        20         3       -7.913418e-01
        21         3       -6.393527e-01
        22         3       -7.207493e-01
        23         3       -2.952845e-01
        24         3        8.284861e-01
        25         3        1.064455e+00
        26         3        4.267244e-01
        27         3        6.938379e-02
        28         3        2.499271e-01
        29         3        1.337057e+00
        30         3        4.807568e-01
        31         3        1.246628e+00
        32         3       -1.166583e+00
        33         3       -1.085441e+00
        34         3       -4.348327e-01
        35         3       -3.770743e-01
        36         3       -1.398054e+00
        37         3        1.109576e+00
        38         3       -2.102568e-01
        39         3       -1.229825e+00
        40         3       -1.152515e+00
        41         3       -6.800938e-02
        42         3       -1.261930e+00
        43         3        8.552934e-01
        44         3       -1.160486e+00
        45         3        3.392174e-01
        46         3        1.164273e-01
        47         3       -2.275603e-01
        48         3       -1.680596e+00
        49         3        4.394992e-01
        50         3        1.643732e+00
        51         3       -7.272494e-02
        52         3       -3.043690e-01
        53         3       -2.830937e-01
        54         3       -1.527922e-01
        55         3       -9.676054e-01
        56         3       -4.576440e-01
        57         3        7.019140e-02
        58         3        2.245876e-01
        59         3        1.173703e+00
        60         3       -3.714289e-01
        61         3        5.069228e-01
        62         3        2.069011e+00
        63         3        7.411245e-02
        64         3        2.080343e+00
        65         3        6.904389e-01
        66         3       -1.009834e+00
        67         3       -6.639001e-01
        68         3        5.999065e-01
        69         3       -1.220678e+00
        70         3       -1.751718e+00
        71         3        5.396330e-01
        72         3        3.176334e-02
        73         3       -1.206271e+00
        74         3       -3.657365e-01
        75         3        4.722235e-01
        76         3       -6.222054e-01
        77         3       -1.068946e+00
        78         3        2.395908e-03
        79         3       -4.484143e-01
        80         3        2.491275e+00
        81         3        4.018640e-01
        82         3        8.517133e-02
        83         3        1.568299e-01
        84         3        7.243426e-01
        85         3       -1.293574e+00
        86         3        1.180691e+00
        87         3       -2.685609e-01
        88         3       -1.165514e+00
        89         3        1.251807e+00
        90         3       -1.212806e-01
        91         3       -4.837188e-01
        92         3       -1.328289e+00
        93         3        1.175869e+00
        94         3       -1.289312e+00
        95         3       -9.166839e-01
        96         3        3.693816e-01
        97         3       -2.544467e+00
        98         3        3.000681e-01
        99         3       -1.388912e+00
       100         3       -1.069744e+00
         1         4        9.507618e-01
         2         4       -1.375847e+00
         3         4        5.816589e-01
         4         4       -9.436414e-01
         5         4        2.902652e-01
         6         4       -2.368873e-01
         7         4        1.180566e-01
         8         4       -3.442121e-01
         9         4       -5.033125e-01
        10         4       -1.231468e-01
        11         4       -5.939622e-01
        12         4        6.085228e-01
        13         4       -1.661705e-01
        14         4        1.632885e+00
        15         4        2.044400e+00
        16         4        9.239265e-02
        17         4       -4.273951e-01
        18         4       -7.856468e-01
        19         4        1.577572e+00
        20         4       -4.022828e-01
        21         4        6.361629e-01
        22         4        7.292545e-01
        23         4        1.304650e+00
        24         4        1.712684e-01
        25         4        3.413948e-01
        26         4        6.508569e-01
        27         4        1.095111e+00
        28         4        1.502354e+00
        29         4        1.073384e+00
        30         4       -2.371981e-01
        31         4       -5.074112e-01
        32         4        5.714726e-01
        33         4       -1.778832e+00
        34         4       -6.557211e-01
        35         4       -1.001972e+00
        36         4        8.101283e-01
        37         4       -8.283091e-01
        38         4       -1.829324e+00
        39         4       -7.832411e-01
        40         4        1.039625e+00
        41         4        4.695750e-01
        42         4        2.625480e-01
        43         4       -1.146211e+00
        44         4        3.832598e-01
        45         4        1.972165e-01
        46         4        2.385328e+00
        47         4        1.541459e+00
        48         4       -1.947396e+00
        49         4       -3.044129e-01
        50         4        5.655739e-01
        51         4       -5.882935e-01
        52         4       -3.409096e-01
        53         4       -6.332945e-02
        54         4       -8.992883e-01
        55         4       -4.231234e-01
        56         4       -1.786932e-01
        57         4        8.185262e-01
        58         4       -2.253781e+00
        59         4        1.767171e+00
        60         4       -1.800418e+00
        61         4        1.478297e+00
        62         4        7.274398e-01
        63         4       -1.427805e+00
        64         4       -1.775698e-01
        65         4       -6.130319e-01
        66         4        1.304629e+00
        67         4        2.699192e-01
        68         4        1.578654e+00
        69         4        8.776131e-01
        70         4        5.645957e-01
        71         4        3.764517e-01
        72         4        7.563743e-01
        73         4       -7.817906e-01
        74         4       -1.499445e-01
        75         4       -1.540303e+00
        76         4       -2.114996e+00
        77         4        5.231048e-01
        78         4       -1.017626e+00
        79         4        7.744328e-01
        80         4        2.814388e-01
        81         4       -9.524533e-03
        82         4        1.327795e+00
        83         4        1.162750e+00
        84         4       -3.017820e-01
        85         4       -5.323150e-01
        86         4       -9.608974e-01
        87         4        4.919450e-01
        88         4        6.365411e-01
        89         4        7.014367e-01
        90         4        8.184662e-01
        91         4       -3.644405e-01
        92         4       -8.304506e-02
        93         4        1.413516e-01
        94         4        1.086700e-02
        95         4       -1.529401e+00
        96         4       -1.831120e-01
        97         4        9.510889e-01
        98         4       -1.175434e+00
        99         4        1.046473e-01
       100         4        6.119480e-01
         1         5        8.428170e-01
         2         5        1.567507e-01
         3         5        1.297020e+00
         4         5       -1.512721e+00
         5         5       -1.095869e+00
         6         5        5.822398e-01
         7         5        7.961293e-01
         8         5       -6.307943e-01
         9         5       -2.165592e+00
        10         5        1.116421e+00
        11         5        8.322406e-01
        12         5       -1.635521e-01
        13         5        7.108989e-01
        14         5       -1.809095e+00
        15         5       -2.791666e-01
        16         5       -1.568730e-01
        17         5       -3.015002e-01
        18         5        2.370662e-01
        19         5        9.109349e-02
        20         5        4.450916e-01
        21         5        6.210894e-01
        22         5        9.395133e-01
        23         5        7.332663e-01
        24         5        2.996132e-01
        25         5        2.150897e-01
        26         5        1.754390e+00
        27         5        3.507304e-01
        28         5       -4.930908e-01
        29         5        8.248115e-01
        30         5        9.480120e-02
        31         5        1.578786e-01
        32         5        8.767785e-01
        33         5        1.586557e+00
        34         5       -6.307769e-01
        35         5       -8.734306e-01
        36         5        1.753342e+00
        37         5        5.027759e-01
        38         5       -1.166937e+00
        39         5       -1.380806e-01
        40         5       -1.524733e-01
        41         5       -2.115446e+00
        42         5       -4.355248e-01
        43         5       -1.294530e+00
        44         5        5.203953e-01
        45         5        5.056574e-01
        46         5       -2.155737e-01
        47         5        2.698123e-01
        48         5       -1.802297e+00
        49         5        5.024629e-01
        50         5       -6.897950e-02
        51         5       -1.162396e+00
        52         5       -1.037409e+00
        53         5       -5.973955e-01
        54         5        1.905456e+00
        55         5        1.029676e+00
        56         5       -7.373013e-01
        57         5       -1.185896e+00
        58         5        8.430349e-01
        59         5        2.777652e+00
        60         5       -1.307270e+00
        61         5       -1.086882e+00
        62         5        9.019650e-01
        63         5       -7.964542e-01
        64         5        2.479195e-01
        65         5       -1.187786e-01
        66         5       -7.025545e-01
        67         5       -2.041924e-01
        68         5        2.130226e+00
        69         5       -1.027138e-01
        70         5        1.337285e+00
        71         5        1.616079e+00
        72         5        1.452628e+00
        73         5        2.016597e-01
        74         5        8.056314e-01
        75         5       -1.511209e-01
        76         5        9.163718e-01
        77         5       -4.190860e-01
        78         5       -7.640904e-02
        79         5       -9.244716e-01
        80         5        6.279574e-01
        81         5        1.431321e+00
        82         5        7.212021e-01
        83         5        2.119769e+00
        84         5       -8.415551e-01
        85         5        5.277848e-01
        86         5        1.264125e+00
        87         5       -4.024619e-01
        88         5       -1.838741e+00
        89         5       -1.286480e+00
        90         5       -3.881252e-01
        91         5        4.842865e-02
        92         5        6.225364e-01
        93         5        7.370362e-02
        94         5       -3.649849e-01
        95         5        9.515536e-01
        96         5        5.614035e-01
        97         5       -2.285088e+00
        98         5       -8.858942e-01
        99         5       -1.077266e+00
       100         5        3.779841e-01
;
param X_Original:=
    1       -1.977669e+00
    2       -9.378822e-01
    3        5.294058e-01
    4       -2.467521e-02
    5        4.212472e-01
    6        1.180626e+00
    7        8.241941e-01
    8        9.991277e-01
    9       -9.499793e-01
   10       -8.333098e-01
   11        2.390302e-01
   12       -1.229112e-01
   13       -2.022534e+00
   14        8.381589e-02
   15        1.016420e+00
   16        6.540473e-01
   17        3.728487e-01
   18        4.409528e-01
   19        7.617622e-01
   20        1.133536e+00
   21       -4.322578e-01
   22        9.707309e-01
   23       -2.360586e+00
   24        2.075831e+00
   25       -3.240347e-01
   26       -5.100374e+00
   27       -3.841011e-01
   28        5.206926e-01
   29       -4.751263e+00
   30       -1.010493e-01
   31        9.775791e-01
   32        2.533942e-01
   33        1.707552e+00
   34       -3.826426e-01
   35       -3.752378e-01
   36       -4.551676e-01
   37        1.257683e+00
   38        2.899924e-01
   39        1.098894e+00
   40        3.381038e-01
   41       -4.783377e-01
   42        3.963760e+00
   43       -1.003941e+00
   44        1.296647e+00
   45        1.719350e+00
   46       -4.538168e-01
   47        1.798204e+00
   48       -9.013468e-01
   49        1.700361e+00
   50       -5.473160e-01
   51        2.172747e-02
   52       -6.012496e-01
   53        2.285220e+00
   54       -6.621628e-01
   55       -3.418419e-01
   56        2.037921e+00
   57       -1.162396e+00
   58       -3.224334e-02
   59        3.110702e-01
   60        4.297322e+00
   61       -2.540848e-03
   62       -5.386003e+00
   63        1.022846e+00
   64        8.700077e-02
   65        1.311785e+00
   66        5.712992e-01
   67        1.074260e+00
   68        2.021029e+00
   69        2.724148e-01
   70       -1.114478e+00
   71       -1.157430e-01
   72       -9.757158e-02
   73        3.306561e-01
   74        1.335133e+00
   75        1.393366e+00
   76        4.324142e-01
   77        9.149134e-01
   78        2.130747e-01
   79        1.634623e-01
   80        2.048516e-01
   81       -2.251703e-01
   82       -1.121448e-01
   83       -9.329111e-01
   84       -1.478605e-01
   85        3.443240e-01
   86        1.380448e+00
   87       -1.324498e+00
   88       -9.816904e-01
   89        4.488764e-01
   90       -4.247700e-01
   91        1.740402e+00
   92        1.757227e-01
   93       -1.091426e+00
   94       -5.408981e-01
   95       -5.521895e-01
   96       -1.024757e+00
   97        3.252234e-01
   98       -8.593798e-01
   99       -1.478092e-01
  100        1.108036e+00
;
param outliervec_original :=
    1    0
    2    1
    3    1
    4    1
    5    1
    6    1
    7    1
    8    1
    9    1
   10    1
   11    1
   12    1
   13    0
   14    1
   15    1
   16    1
   17    1
   18    1
   19    1
   20    0
   21    1
   22    1
   23    1
   24    1
   25    1
   26    0
   27    1
   28    1
   29    0
   30    1
   31    1
   32    0
   33    1
   34    1
   35    1
   36    1
   37    1
   38    1
   39    1
   40    1
   41    1
   42    0
   43    1
   44    1
   45    1
   46    1
   47    1
   48    1
   49    1
   50    1
   51    1
   52    1
   53    0
   54    1
   55    1
   56    0
   57    1
   58    1
   59    1
   60    0
   61    1
   62    0
   63    1
   64    1
   65    1
   66    1
   67    1
   68    1
   69    1
   70    1
   71    1
   72    1
   73    1
   74    1
   75    0
   76    1
   77    1
   78    1
   79    1
   80    1
   81    1
   82    1
   83    1
   84    1
   85    1
   86    1
   87    1
   88    1
   89    1
   90    1
   91    0
   92    1
   93    1
   94    1
   95    1
   96    0
   97    1
   98    1
   99    1
  100    1
;
param d:= 57;
param r:=5;
param p:=0.860000;
param M:=1000;
param U:=
         1         1       -5.992558e-01
         2         1        5.910566e-02
         3         1       -6.319669e-01
         4         1       -8.220920e-01
         5         1        1.660732e+00
         6         1        5.159186e-01
         7         1       -5.354132e-01
         8         1       -1.559323e-01
         9         1       -1.071383e+00
        10         1        1.495492e-01
        11         1       -1.555124e-01
        12         1        4.387916e-01
        13         1        5.114286e-01
        14         1       -4.861657e-01
        15         1       -6.996783e-01
        16         1       -8.814696e-02
        17         1       -8.511047e-01
        18         1       -5.993323e-01
        19         1        7.257106e-01
        20         1       -1.623553e-01
        21         1       -6.494955e-01
        22         1        1.392704e+00
        23         1       -5.537077e-01
        24         1       -5.213495e-01
        25         1       -9.922698e-01
        26         1       -5.017752e-01
        27         1       -8.499013e-01
        28         1        4.750581e-01
        29         1       -1.806347e+00
        30         1       -2.959437e-01
        31         1       -4.327943e-01
        32         1        8.814757e-01
        33         1       -1.113816e+00
        34         1        2.342800e+00
        35         1        1.258262e-01
        36         1       -3.687485e-02
        37         1        1.319019e-01
        38         1        7.926076e-01
        39         1       -1.989264e-01
        40         1       -7.608079e-01
        41         1       -1.051691e+00
        42         1       -1.197719e+00
        43         1        1.417998e+00
        44         1        1.704480e+00
        45         1        1.640328e+00
        46         1        2.469568e-01
        47         1       -1.545719e+00
        48         1       -1.638905e-01
        49         1        8.329191e-01
        50         1       -7.058580e-01
        51         1        8.391113e-01
        52         1        2.343219e-01
        53         1        9.358119e-01
        54         1        3.902849e-02
        55         1        3.282928e-01
        56         1        2.586500e-02
        57         1        1.583820e+00
         1         2        4.839537e-01
         2         2       -7.456128e-02
         3         2        2.371332e+00
         4         2       -1.036207e+00
         5         2       -1.526008e-03
         6         2       -7.660615e-01
         7         2       -6.893125e-01
         8         2       -7.729421e-01
         9         2        1.155919e+00
        10         2        1.928176e-01
        11         2       -4.482399e-01
        12         2       -1.112074e+00
        13         2       -2.101203e-01
        14         2       -5.259641e-01
        15         2       -1.599833e-01
        16         2        4.102039e-04
        17         2        1.317532e+00
        18         2       -7.128664e-01
        19         2       -1.804561e-01
        20         2        6.247627e-01
        21         2        6.324265e-01
        22         2        1.394736e+00
        23         2        6.560845e-01
        24         2        1.307689e+00
        25         2       -7.191369e-02
        26         2       -1.851860e+00
        27         2        2.250843e-01
        28         2        1.854768e+00
        29         2       -2.010391e+00
        30         2        1.499691e+00
        31         2        1.706752e+00
        32         2       -4.783717e-01
        33         2        9.097964e-01
        34         2        9.304651e-01
        35         2       -7.428432e-01
        36         2        1.286956e+00
        37         2       -2.577739e-01
        38         2       -2.123476e+00
        39         2       -1.444020e+00
        40         2       -1.523095e-01
        41         2        9.141493e-01
        42         2       -3.529196e-01
        43         2       -7.495687e-01
        44         2       -8.056775e-01
        45         2       -4.411028e-01
        46         2        1.553349e+00
        47         2        1.442556e-01
        48         2       -9.440822e-01
        49         2       -1.100131e-01
        50         2       -3.380027e-01
        51         2       -9.662092e-01
        52         2       -1.569257e+00
        53         2        5.447383e-01
        54         2       -8.406635e-01
        55         2       -1.674010e+00
        56         2       -1.578774e-01
        57         2        3.030097e-01
         1         3       -2.419920e-01
         2         3       -9.928154e-01
         3         3        1.016212e+00
         4         3       -6.690535e-01
         5         3       -5.580966e-01
         6         3       -7.634138e-01
         7         3       -3.156223e-01
         8         3        1.050564e-01
         9         3        1.189697e+00
        10         3        8.551052e-01
        11         3       -6.442985e-01
        12         3        3.166841e-01
        13         3        4.034463e-01
        14         3       -4.952017e-01
        15         3       -7.913418e-01
        16         3       -6.393527e-01
        17         3       -2.952845e-01
        18         3        4.267244e-01
        19         3        6.938379e-02
        20         3        1.337057e+00
        21         3       -1.166583e+00
        22         3       -1.085441e+00
        23         3       -4.348327e-01
        24         3       -1.398054e+00
        25         3       -2.102568e-01
        26         3       -1.229825e+00
        27         3       -1.152515e+00
        28         3       -1.261930e+00
        29         3        8.552934e-01
        30         3       -1.160486e+00
        31         3        1.164273e-01
        32         3        1.643732e+00
        33         3       -7.272494e-02
        34         3       -2.830937e-01
        35         3       -1.527922e-01
        36         3       -9.676054e-01
        37         3       -4.576440e-01
        38         3        2.245876e-01
        39         3       -3.714289e-01
        40         3        5.069228e-01
        41         3        2.069011e+00
        42         3        7.411245e-02
        43         3        6.904389e-01
        44         3        3.176334e-02
        45         3        4.722235e-01
        46         3       -6.222054e-01
        47         3        2.395908e-03
        48         3       -4.484143e-01
        49         3        4.018640e-01
        50         3        7.243426e-01
        51         3        1.251807e+00
        52         3       -1.212806e-01
        53         3       -4.837188e-01
        54         3       -1.328289e+00
        55         3        1.175869e+00
        56         3       -9.166839e-01
        57         3        3.693816e-01
         1         4        9.507618e-01
         2         4        5.816589e-01
         3         4       -9.436414e-01
         4         4        2.902652e-01
         5         4       -2.368873e-01
         6         4       -3.442121e-01
         7         4       -5.939622e-01
         8         4        6.085228e-01
         9         4       -1.661705e-01
        10         4        1.632885e+00
        11         4        2.044400e+00
        12         4        9.239265e-02
        13         4       -4.273951e-01
        14         4       -7.856468e-01
        15         4       -4.022828e-01
        16         4        6.361629e-01
        17         4        1.304650e+00
        18         4        6.508569e-01
        19         4        1.095111e+00
        20         4        1.073384e+00
        21         4        5.714726e-01
        22         4       -1.778832e+00
        23         4       -6.557211e-01
        24         4        8.101283e-01
        25         4       -1.829324e+00
        26         4       -7.832411e-01
        27         4        1.039625e+00
        28         4        2.625480e-01
        29         4       -1.146211e+00
        30         4        3.832598e-01
        31         4        2.385328e+00
        32         4        5.655739e-01
        33         4       -5.882935e-01
        34         4       -6.332945e-02
        35         4       -8.992883e-01
        36         4       -4.231234e-01
        37         4       -1.786932e-01
        38         4       -2.253781e+00
        39         4       -1.800418e+00
        40         4        1.478297e+00
        41         4        7.274398e-01
        42         4       -1.427805e+00
        43         4       -6.130319e-01
        44         4        7.563743e-01
        45         4       -1.540303e+00
        46         4       -2.114996e+00
        47         4       -1.017626e+00
        48         4        7.744328e-01
        49         4       -9.524533e-03
        50         4       -3.017820e-01
        51         4        7.014367e-01
        52         4        8.184662e-01
        53         4       -3.644405e-01
        54         4       -8.304506e-02
        55         4        1.413516e-01
        56         4       -1.529401e+00
        57         4       -1.831120e-01
         1         5        8.428170e-01
         2         5        1.297020e+00
         3         5       -1.512721e+00
         4         5       -1.095869e+00
         5         5        5.822398e-01
         6         5       -6.307943e-01
         7         5        8.322406e-01
         8         5       -1.635521e-01
         9         5        7.108989e-01
        10         5       -1.809095e+00
        11         5       -2.791666e-01
        12         5       -1.568730e-01
        13         5       -3.015002e-01
        14         5        2.370662e-01
        15         5        4.450916e-01
        16         5        6.210894e-01
        17         5        7.332663e-01
        18         5        1.754390e+00
        19         5        3.507304e-01
        20         5        8.248115e-01
        21         5        8.767785e-01
        22         5        1.586557e+00
        23         5       -6.307769e-01
        24         5        1.753342e+00
        25         5       -1.166937e+00
        26         5       -1.380806e-01
        27         5       -1.524733e-01
        28         5       -4.355248e-01
        29         5       -1.294530e+00
        30         5        5.203953e-01
        31         5       -2.155737e-01
        32         5       -6.897950e-02
        33         5       -1.162396e+00
        34         5       -5.973955e-01
        35         5        1.905456e+00
        36         5        1.029676e+00
        37         5       -7.373013e-01
        38         5        8.430349e-01
        39         5       -1.307270e+00
        40         5       -1.086882e+00
        41         5        9.019650e-01
        42         5       -7.964542e-01
        43         5       -1.187786e-01
        44         5        1.452628e+00
        45         5       -1.511209e-01
        46         5        9.163718e-01
        47         5       -7.640904e-02
        48         5       -9.244716e-01
        49         5        1.431321e+00
        50         5       -8.415551e-01
        51         5       -1.286480e+00
        52         5       -3.881252e-01
        53         5        4.842865e-02
        54         5        6.225364e-01
        55         5        7.370362e-02
        56         5        9.515536e-01
        57         5        5.614035e-01
;

param theta:=
    1       -9.479745e-04
    2        7.982132e-01
    3       -1.727815e+00
    4       -1.505887e+00
    5       -1.604176e+00
;
param X_true:=
    1       -1.977669e+00
    2       -1.301415e+00
    3        3.984499e+00
    4        1.651323e+00
    5        3.849154e-01
    6        2.236244e+00
    7       -4.455193e-01
    8       -1.453467e+00
    9       -2.022534e+00
   10       -8.807235e-01
   11       -1.875468e+00
   12       -1.325141e+00
   13        2.631171e-01
   14        1.237075e+00
   15        1.133536e+00
   16       -8.490781e-01
   17       -1.576895e+00
   18       -5.100374e+00
   19       -2.475585e+00
   20       -4.751263e+00
   21        2.533942e-01
   22        3.122320e+00
   23        3.275647e+00
   24       -5.720213e-01
   25        4.934363e+00
   26        2.050553e+00
   27        8.511771e-01
   28        3.963760e+00
   29        7.231079e-01
   30        1.789424e+00
   31       -2.083872e+00
   32       -3.963326e+00
   33        3.605825e+00
   34        2.285220e+00
   35       -2.031325e+00
   36        1.686268e+00
   37        2.037921e+00
   38       -4.124136e-02
   39        4.297322e+00
   40       -1.480522e+00
   41       -5.386003e+00
   42        3.019338e+00
   43       -6.795725e-01
   44       -4.168544e+00
   45        1.393366e+00
   46        4.030532e+00
   47        1.769030e+00
   48        3.375757e-01
   49       -3.064897e+00
   50        2.842254e-01
   51       -1.926832e+00
   52       -1.653402e+00
   53        1.740402e+00
   54        7.502525e-01
   55       -3.698918e+00
   56        2.232612e+00
   57       -1.024757e+00
;
param X:=
    1       -1.977669e+00
    2        5.294058e-01
    3       -2.467521e-02
    4        4.212472e-01
    5        1.180626e+00
    6        9.991277e-01
    7        2.390302e-01
    8       -1.229112e-01
    9       -2.022534e+00
   10        8.381589e-02
   11        1.016420e+00
   12        6.540473e-01
   13        3.728487e-01
   14        4.409528e-01
   15        1.133536e+00
   16       -4.322578e-01
   17       -2.360586e+00
   18       -5.100374e+00
   19       -3.841011e-01
   20       -4.751263e+00
   21        2.533942e-01
   22        1.707552e+00
   23       -3.826426e-01
   24       -4.551676e-01
   25        2.899924e-01
   26        1.098894e+00
   27        3.381038e-01
   28        3.963760e+00
   29       -1.003941e+00
   30        1.296647e+00
   31       -4.538168e-01
   32       -5.473160e-01
   33        2.172747e-02
   34        2.285220e+00
   35       -6.621628e-01
   36       -3.418419e-01
   37        2.037921e+00
   38       -3.224334e-02
   39        4.297322e+00
   40       -2.540848e-03
   41       -5.386003e+00
   42        1.022846e+00
   43        1.311785e+00
   44       -9.757158e-02
   45        1.393366e+00
   46        4.324142e-01
   47        2.130747e-01
   48        1.634623e-01
   49       -2.251703e-01
   50       -1.478605e-01
   51        4.488764e-01
   52       -4.247700e-01
   53        1.740402e+00
   54        1.757227e-01
   55       -1.091426e+00
   56       -5.521895e-01
   57       -1.024757e+00
;
param outliervec:=
    1    0
    2    1
    3    1
    4    1
    5    1
    6    1
    7    1
    8    1
    9    0
   10    1
   11    1
   12    1
   13    1
   14    1
   15    0
   16    1
   17    1
   18    0
   19    1
   20    0
   21    0
   22    1
   23    1
   24    1
   25    1
   26    1
   27    1
   28    0
   29    1
   30    1
   31    1
   32    1
   33    1
   34    0
   35    1
   36    1
   37    0
   38    1
   39    0
   40    1
   41    0
   42    1
   43    1
   44    1
   45    0
   46    1
   47    1
   48    1
   49    1
   50    1
   51    1
   52    1
   53    0
   54    1
   55    1
   56    1
   57    0
; 
param greedy_time :=         2.598912e-01
;